\ LP format - for model browsing. Use MPS format to capture full model detail.
Minimize
  28871 C0(6) + 30410 C1(8) + 29205 C2(7) + 26735 C3(7) + 28938 C4(7)
   + 30046 C5(7) + 32991 C6(6) + 26097 C7(8) + 29108 C8(7) + 26013 C9(7)
   + 27569 C10(8) + 29962 C11(6) + 26974 C12(7) + 28989 C13(7)
   + 30711 C14(7) + 29318 C15(8) + 30652 C16(6) + 26550 C17(7)
   + 30399 C18(7) + 27304 C19(7) + 30512 C20(6) + 27332 C21(8)
   + 29205 C22(7) + 29452 C23(7) + 27682 C24(7) + 28360 C25(7)
   + 29034 C26(7) + 30769 C27(7) + 27509 C28(8) + 28539 C29(6)
   + 29548 C30(8) + 28505 C31(6) + 27725 C32(8) + 28111 C33(7)
   + 30254 C34(6) + 27604 C35(7) + 30769 C36(7) + 27509 C37(8)
   + 28161 C38(6) + 30134 C39(7) + 25174 C40(8) + 27322 C41(8)
   + 31022 C42(8) + 30420 C43(6) + 30274 C44(5) + 28618 C45(7)
   + 31227 C46(6) + 30769 C47(7) + 26063 C48(7) + 27509 C49(8)
   + 16442 C50(5) + 16656 C51(6) + 18308 C52(6) + 28788 C53(6)
   + 28533 C54(5) + 20459 C55(5) + 15806 C56(5) + 20972 C57(5)
   + 16052 C58(6) + 29904 C59(7) + 30197 C60(8) + 22010 C61(6)
   + 20023 C62(5) + 20294 C63(6) + 19372 C64(4) + 35104 C65(5)
   + 35401 C66(6) + 27996 C67(5) + 28399 C68(7) + 21880 C69(6)
   + 29838 C70(7) + 31066 C71(6) + 30822 C72(5) + 32131 C73(7)
   + 17983 C74(7) + 21054 C75(6) + 22610 C76(7) + 26766 C77(6)
   + 27833 C78(6) + 26541 C79(5) + 25591 C80(6) + 25370 C81(5)
   + 33274 C82(6) + 27717 C83(6) + 25465 C84(7) + 23860 C85(6)
   + 23566 C86(6) + 28479 C87(7) + 28239 C88(6) + 28919 C89(6)
   + 28684 C90(5) + 30394 C91(6) + 29524 C92(7) + 27797 C93(7)
   + 27562 C94(6) + 25916 C95(6) + 25618 C96(6) + 23084 C97(6)
   + 29014 C98(7) + 28036 C99(6) + 27258 C100(6) + 25372 C101(7)
   + 24910 C102(7) + 25626 C103(7) + 26422 C104(6) + 26198 C105(6)
   + 25974 C106(5) + 29701 C107(6) + 29464 C108(5) + 26366 C109(6)
   + 27140 C110(7) + 26889 C111(6) + 25085 C112(5) + 28905 C113(7)
   + 25085 C114(8) + 26705 C115(6) + 23589 C116(7) + 23367 C117(6)
Subject To
 c0: C0(6) + C1(8) + C2(7) + C3(7) + C4(7) + C5(7) + C6(6) + C7(8) + C8(7)
   + C9(7) + C10(8) + C11(6) + C12(7) + C13(7) + C14(7) + C15(8) + C16(6)
   + C17(7) + C18(7) + C19(7) + C20(6) + C21(8) + C22(7) + C23(7) + C24(7)
   + C25(7) + C26(7) + C27(7) + C28(8) + C29(6) + C30(8) + C31(6) + C32(8)
   + C33(7) + C34(6) + C35(7) + C36(7) + C37(8) + C38(6) + C39(7) + C40(8)
   + C41(8) + C42(8) + C43(6) + C44(5) + C45(7) + C46(6) + C47(7) + C48(7)
   + C49(8) + C50(5) + C51(6) + C52(6) + C53(6) + C54(5) + C55(5) + C56(5)
   + C57(5) + C58(6) + C59(7) + C60(8) + C61(6) + C62(5) + C63(6) + C64(4)
   + C65(5) + C66(6) + C67(5) + C68(7) + C69(6) + C70(7) + C71(6) + C72(5)
   + C73(7) + C74(7) + C75(6) + C76(7) + C77(6) + C78(6) + C79(5) + C80(6)
   + C81(5) + C82(6) + C83(6) + C84(7) + C85(6) + C86(6) + C87(7) + C88(6)
   + C89(6) + C90(5) + C91(6) + C92(7) + C93(7) + C94(6) + C95(6) + C96(6)
   + C97(6) + C98(7) + C99(6) + C100(6) + C101(7) + C102(7) + C103(7)
   + C104(6) + C105(6) + C106(5) + C107(6) + C108(5) + C109(6) + C110(7)
   + C111(6) + C112(5) + C113(7) + C114(8) + C115(6) + C116(7) + C117(6)
   = 5
 c1: C0(6) + C5(7) + C14(7) + C15(8) + C20(6) + C25(7) + C31(6) + C38(6)
   + C44(5) + C46(6) + C50(5) + C51(6) + C52(6) + C75(6) + C110(7)
   + C111(6) + C112(5) = 1
 c2: C2(7) + C6(6) + C10(8) + C18(7) + C22(7) + C28(8) + C32(8) + C37(8)
   + C43(6) + C49(8) = 1
 c3: C3(7) + C5(7) + C14(7) + C15(8) + C24(7) + C26(7) + C33(7) + C38(6)
   + C41(8) + C46(6) + C52(6) = 1
 c4: C3(7) + C5(7) + C14(7) + C17(7) + C20(6) + C29(6) + C33(7) + C38(6)
   + C44(5) + C46(6) + C53(6) + C54(5) + C55(5) = 1
 c5: C3(7) + C6(6) + C10(8) + C17(7) + C21(8) + C28(8) + C34(6) + C37(8)
   + C43(6) + C49(8) + C68(7) + C69(6) + C70(7) + C74(7) + C76(7) + C83(6)
   + C92(7) + C93(7) + C94(6) + C95(6) + C97(6) + C102(7) + C103(7)
   + C105(6) + C106(5) + C113(7) + C114(8) + C115(6) = 1
 c6: C2(7) + C7(8) + C10(8) + C18(7) + C22(7) + C27(7) + C34(6) + C36(7)
   + C40(8) + C47(7) = 1
 c7: C2(7) + C9(7) + C13(7) + C19(7) + C22(7) + C27(7) + C32(8) + C36(7)
   + C41(8) + C47(7) + C53(6) + C54(5) + C55(5) + C57(5) + C77(6) + C78(6)
   + C79(5) + C89(6) + C90(5) + C91(6) + C95(6) + C96(6) + C100(6)
   + C104(6) + C107(6) + C108(5) + C109(6) + C113(7) + C114(8) + C115(6)
   = 1
 c8: C4(7) + C8(7) + C12(7) + C16(6) + C24(7) + C26(7) + C30(8) + C39(7)
   + C43(6) + C45(7) + C65(5) + C66(6) + C67(5) + C110(7) + C111(6)
   + C113(7) + C114(8) + C115(6) = 1
 c9: C3(7) + C6(6) + C10(8) + C17(7) + C21(8) + C28(8) + C34(6) + C37(8)
   + C43(6) + C49(8) + C59(7) + C60(8) + C61(6) + C74(7) + C76(7) + C86(6)
   + C87(7) + C88(6) + C92(7) + C101(7) + C103(7) + C107(6) + C108(5)
   + C109(6) = 1
 c10: C3(7) + C9(7) + C11(6) + C16(6) + C23(7) + C29(6) + C33(7) + C39(7)
   + C41(8) + C45(7) = 1
 c11: C1(8) + C5(7) + C13(7) + C17(7) + C21(8) + C28(8) + C32(8) + C37(8)
   + C40(8) + C49(8) = 1
 c12: C4(7) + C7(8) + C14(7) + C15(8) + C23(7) + C25(7) + C30(8) + C39(7)
   + C42(8) + C45(7) + C56(5) + C58(6) + C62(5) + C63(6) + C73(7) + C80(6)
   + C81(5) + C82(6) + C84(7) + C85(6) + C98(7) + C116(7) + C117(6) = 1
 c13: C0(6) + C5(7) + C12(7) + C15(8) + C24(7) + C25(7) + C30(8) + C35(7)
   + C41(8) + C48(7) + C110(7) + C111(6) + C113(7) + C114(8) = 1
 c14: C1(8) + C7(8) + C11(6) + C18(7) + C23(7) + C29(6) + C33(7) + C35(7)
   + C42(8) + C48(7) + C74(7) + C75(6) + C76(7) + C83(6) + C84(7) + C85(6)
   + C86(6) + C87(7) + C88(6) + C89(6) + C90(5) + C91(6) + C92(7) + C93(7)
   + C94(6) + C96(6) + C97(6) + C101(7) + C102(7) + C104(6) + C105(6)
   + C106(5) + C116(7) + C117(6) = 1
 c15: C0(6) + C7(8) + C12(7) + C17(7) + C20(6) + C25(7) + C30(8) + C35(7)
   + C44(5) + C48(7) + C110(7) + C111(6) + C114(8) = 1
 c16: C1(8) + C8(7) + C12(7) + C18(7) + C24(7) + C26(7) + C33(7) + C38(6)
   + C40(8) + C45(7) + C59(7) + C60(8) + C68(7) + C70(7) + C71(6) + C72(5)
   + C73(7) = 1
 c17: C4(7) + C9(7) + C11(6) + C16(6) + C23(7) + C26(7) + C31(6) + C39(7)
   + C40(8) + C45(7) + C113(7) = 1
 c18: C0(6) + C7(8) + C10(8) + C15(8) + C21(8) + C25(7) + C31(6) + C35(7)
   + C40(8) + C48(7) + C53(6) + C54(5) + C55(5) + C68(7) + C76(7) + C92(7)
   + C104(6) = 1
 c19: C2(7) + C9(7) + C13(7) + C19(7) + C22(7) + C27(7) + C32(8) + C36(7)
   + C41(8) + C47(7) + C56(5) + C57(5) + C58(6) + C71(6) + C72(5) + C73(7)
   + C86(6) + C87(7) + C88(6) + C93(7) + C94(6) + C95(6) + C96(6) + C97(6)
   + C101(7) + C102(7) + C103(7) + C109(6) + C116(7) + C117(6) = 1
 c20: C4(7) + C7(8) + C14(7) + C15(8) + C23(7) + C25(7) + C30(8) + C39(7)
   + C42(8) + C48(7) + C59(7) + C60(8) + C61(6) + C69(6) + C70(7) + C77(6)
   + C78(6) + C79(5) + C80(6) + C81(5) + C82(6) + C98(7) + C99(6) = 1
 c21: C1(8) + C8(7) + C10(8) + C19(7) + C20(6) + C28(8) + C32(8) + C37(8)
   + C42(8) + C49(8) + C110(7) + C111(6) + C114(8) = 1
 c22: C1(8) + C6(6) + C11(6) + C18(7) + C23(7) + C28(8) + C34(6) + C37(8)
   + C42(8) + C49(8) + C65(5) + C66(6) + C67(5) + C71(6) + C72(5) + C73(7)
   + C80(6) + C81(5) + C82(6) + C89(6) + C90(5) + C105(6) + C106(5)
   + C107(6) + C108(5) = 1
 c23: C2(7) + C9(7) + C13(7) + C19(7) + C22(7) + C27(7) + C32(8) + C36(7)
   + C41(8) + C47(7) + C50(5) + C51(6) + C52(6) + C59(7) + C60(8) + C61(6)
   + C68(7) + C69(6) + C70(7) + C74(7) + C75(6) + C84(7) + C98(7) + C99(6)
   + C100(6) + C101(7) + C102(7) + C103(7) = 1
 c24: C2(7) + C9(7) + C13(7) + C19(7) + C22(7) + C27(7) + C32(8) + C36(7)
   + C41(8) + C47(7) + C62(5) + C63(6) + C64(4) + C77(6) + C78(6) + C79(5)
   + C83(6) + C84(7) + C85(6) + C87(7) + C88(6) + C91(6) + C93(7) + C94(6)
   + C98(7) + C99(6) + C100(6) + C112(5) + C116(7) + C117(6) = 1
 c25: C1(8) + C8(7) + C13(7) + C19(7) + C21(8) + C27(7) + C34(6) + C36(7)
   + C42(8) + C47(7) + C53(6) + C54(5) + C56(5) + C57(5) + C58(6) + C59(7)
   + C60(8) + C61(6) + C62(5) + C63(6) + C64(4) + C68(7) + C69(6) + C70(7)
   + C71(6) + C72(5) + C73(7) + C77(6) + C79(5) + C80(6) + C81(5) + C82(6)
   + C83(6) + C84(7) + C85(6) + C86(6) + C87(7) + C88(6) + C89(6) + C90(5)
   + C91(6) + C92(7) + C93(7) + C94(6) + C95(6) + C96(6) + C97(6) + C98(7)
   + C99(6) + C100(6) + C101(7) + C102(7) + C103(7) + C104(6) + C105(6)
   + C106(5) + C107(6) + C108(5) + C109(6) + C112(5) + C115(6) + C116(7)
   + C117(6) = 1
 c26: C3(7) + C7(8) + C10(8) + C17(7) + C21(8) + C29(6) + C33(7) + C35(7)
   + C40(8) + C48(7) + C50(5) + C51(6) + C52(6) + C65(5) + C66(6) + C67(5)
   + C78(6) = 1
 c27: C1(8) + C8(7) + C12(7) + C18(7) + C21(8) + C28(8) + C30(8) + C37(8)
   + C42(8) + C49(8) + C51(6) + C53(6) + C58(6) + C60(8) + C63(6) + C66(6)
   + C67(5) + C71(6) + C73(7) + C77(6) + C80(6) + C87(7) + C89(6) + C93(7)
   + C105(6) + C107(6) + C110(7) + C112(5) + C114(8) + C115(6) + C116(7)
   = 1
 c28: C0(6) + C5(7) + C11(6) + C16(6) + C20(6) + C29(6) + C31(6) + C35(7)
   + C44(5) + C46(6) = 1
 c29: C4(7) + C8(7) + C12(7) + C16(6) + C24(7) + C26(7) + C30(8) + C39(7)
   + C40(8) + C45(7) + C74(7) + C75(6) + C76(7) = 1
 c30: C4(7) + C6(6) + C14(7) + C15(8) + C24(7) + C26(7) + C31(6) + C38(6)
   + C43(6) + C46(6) + C50(5) + C51(6) + C52(6) + C55(5) + C56(5) + C57(5)
   + C58(6) + C59(7) + C60(8) + C61(6) + C62(5) + C63(6) + C64(4) + C65(5)
   + C66(6) + C68(7) + C69(6) + C70(7) + C74(7) + C75(6) + C76(7) + C78(6)
   + C82(6) + C83(6) + C84(7) + C85(6) + C86(6) + C91(6) + C92(7) + C95(6)
   + C96(6) + C97(6) + C98(7) + C99(6) + C100(6) + C101(7) + C102(7)
   + C103(7) + C104(6) + C109(6) + C113(7) = 1
Bounds
 C0(6) <= 1
 C1(8) <= 1
 C2(7) <= 1
 C3(7) <= 1
 C4(7) <= 1
 C5(7) <= 1
 C6(6) <= 1
 C7(8) <= 1
 C8(7) <= 1
 C9(7) <= 1
 C10(8) <= 1
 C11(6) <= 1
 C12(7) <= 1
 C13(7) <= 1
 C14(7) <= 1
 C15(8) <= 1
 C16(6) <= 1
 C17(7) <= 1
 C18(7) <= 1
 C19(7) <= 1
 C20(6) <= 1
 C21(8) <= 1
 C22(7) <= 1
 C23(7) <= 1
 C24(7) <= 1
 C25(7) <= 1
 C26(7) <= 1
 C27(7) <= 1
 C28(8) <= 1
 C29(6) <= 1
 C30(8) <= 1
 C31(6) <= 1
 C32(8) <= 1
 C33(7) <= 1
 C34(6) <= 1
 C35(7) <= 1
 C36(7) <= 1
 C37(8) <= 1
 C38(6) <= 1
 C39(7) <= 1
 C40(8) <= 1
 C41(8) <= 1
 C42(8) <= 1
 C43(6) <= 1
 C44(5) <= 1
 C45(7) <= 1
 C46(6) <= 1
 C47(7) <= 1
 C48(7) <= 1
 C49(8) <= 1
 C50(5) <= 1
 C51(6) <= 1
 C52(6) <= 1
 C53(6) <= 1
 C54(5) <= 1
 C55(5) <= 1
 C56(5) <= 1
 C57(5) <= 1
 C58(6) <= 1
 C59(7) <= 1
 C60(8) <= 1
 C61(6) <= 1
 C62(5) <= 1
 C63(6) <= 1
 C64(4) <= 1
 C65(5) <= 1
 C66(6) <= 1
 C67(5) <= 1
 C68(7) <= 1
 C69(6) <= 1
 C70(7) <= 1
 C71(6) <= 1
 C72(5) <= 1
 C73(7) <= 1
 C74(7) <= 1
 C75(6) <= 1
 C76(7) <= 1
 C77(6) <= 1
 C78(6) <= 1
 C79(5) <= 1
 C80(6) <= 1
 C81(5) <= 1
 C82(6) <= 1
 C83(6) <= 1
 C84(7) <= 1
 C85(6) <= 1
 C86(6) <= 1
 C87(7) <= 1
 C88(6) <= 1
 C89(6) <= 1
 C90(5) <= 1
 C91(6) <= 1
 C92(7) <= 1
 C93(7) <= 1
 C94(6) <= 1
 C95(6) <= 1
 C96(6) <= 1
 C97(6) <= 1
 C98(7) <= 1
 C99(6) <= 1
 C100(6) <= 1
 C101(7) <= 1
 C102(7) <= 1
 C103(7) <= 1
 C104(6) <= 1
 C105(6) <= 1
 C106(5) <= 1
 C107(6) <= 1
 C108(5) <= 1
 C109(6) <= 1
 C110(7) <= 1
 C111(6) <= 1
 C112(5) <= 1
 C113(7) <= 1
 C114(8) <= 1
 C115(6) <= 1
 C116(7) <= 1
 C117(6) <= 1
End
